5 
6 
2 
7 
8 
6 
7 
3 
6 
1 
8 
5 
4 
5 
4 
5 
3 
6 
5 
5 
7 
1 
5 
8 
2 
5 
7 
7 
4 
7 
5 
3 
3 
3 
2 
6 
4 
4 
5 
8 
6 
6 
4 
9 
4 
3 
5 
8 
4 
6 
4 
5 
4 
5 
2 
7 
6 
4 
2 
1 
6 
3 
3 
7 
10 
7 
2 
3 
5 
4 
4 
3 
5 
4 
11 
6 
3 
5 
6 
6 
6 
3 
5 
6 
6 
3 
4 
3 
7 
6 
8 
7 
6 
10 
7 
8 
6 
7 
3 
7 
